
Gurobi 6.5.2 (win64) logging started 07/23/16 03:50:56


Gurobi 6.5.2 (win64) logging started 07/23/16 03:50:56

Optimize a model with 32801 rows, 1608 columns and 70204 nonzeros
Coefficient statistics:
  Matrix range    [4e-06, 1e+03]
  Objective range [1e+00, 1e+00]
  Bounds range    [1e+00, 1e+00]
  RHS range       [1e+00, 1e+03]
Presolve removed 32775 rows and 1582 columns
Presolve time: 0.01s
Presolved: 26 rows, 26 columns, 80 nonzeros
Variable types: 26 continuous, 0 integer (0 binary)

Root relaxation: objective 2.117109e+02, 18 iterations, 0.00 seconds

    Nodes    |    Current Node    |     Objective Bounds      |     Work
 Expl Unexpl |  Obj  Depth IntInf | Incumbent    BestBd   Gap | It/Node Time

*    0     0               0     211.7108955  211.71090  0.00%     -    0s

Explored 0 nodes (18 simplex iterations) in 0.03 seconds
Thread count was 8 (of 8 available processors)

Optimal solution found (tolerance 1.00e-04)
Best objective 2.117108954982e+02, best bound 2.117108954982e+02, gap 0.0%

Wrote requested result file 'H2\instance28\\Results28EC_Sol3.lp'

